p cnf 745 2208
1 -3 51 0
-1 -3 -51 0
1 3 -51 0
-1 3 51 0
4 7 52 0
-4 7 -52 0
4 -7 -52 0
-4 -7 52 0
8 11 53 0
-8 11 -53 0
8 -11 -53 0
-8 -11 53 0
12 -13 54 0
-12 -13 -54 0
12 13 -54 0
-12 13 54 0
14 -15 55 0
-14 -15 -55 0
14 15 -55 0
-14 15 55 0
-17 18 56 0
17 18 -56 0
-17 -18 -56 0
17 -18 56 0
23 25 57 0
-23 25 -57 0
23 -25 -57 0
-23 -25 57 0
-26 27 58 0
26 27 -58 0
-26 -27 -58 0
26 -27 58 0
-30 -31 59 0
30 -31 -59 0
-30 31 -59 0
30 31 59 0
33 -36 60 0
-33 -36 -60 0
33 36 -60 0
-33 36 60 0
-37 38 61 0
37 38 -61 0
-37 -38 -61 0
37 -38 61 0
-40 -42 62 0
40 -42 -62 0
-40 42 -62 0
40 42 62 0
44 -45 63 0
-44 -45 -63 0
44 45 -63 0
-44 45 63 0
-46 47 64 0
46 47 -64 0
-46 -47 -64 0
46 -47 64 0
-48 49 65 0
48 49 -65 0
-48 -49 -65 0
48 -49 65 0
51 -52 66 0
-51 -52 -66 0
51 52 -66 0
-51 52 66 0
53 -54 67 0
-53 -54 -67 0
53 54 -67 0
-53 54 67 0
55 -56 68 0
-55 -56 -68 0
55 56 -68 0
-55 56 68 0
57 -58 69 0
-57 -58 -69 0
57 58 -69 0
-57 58 69 0
59 -60 70 0
-59 -60 -70 0
59 60 -70 0
-59 60 70 0
61 -62 71 0
-61 -62 -71 0
61 62 -71 0
-61 62 71 0
63 -64 72 0
-63 -64 -72 0
63 64 -72 0
-63 64 72 0
65 -66 73 0
-65 -66 -73 0
65 66 -73 0
-65 66 73 0
67 -68 74 0
-67 -68 -74 0
67 68 -74 0
-67 68 74 0
69 -70 75 0
-69 -70 -75 0
69 70 -75 0
-69 70 75 0
71 -72 76 0
-71 -72 -76 0
71 72 -76 0
-71 72 76 0
73 -74 77 0
-73 -74 -77 0
73 74 -77 0
-73 74 77 0
75 -76 78 0
-75 -76 -78 0
75 76 -78 0
-75 76 78 0
77 78 0
-77 -78 0
2 3 79 0
-2 3 -79 0
2 -3 -79 0
-2 -3 79 0
-4 -5 80 0
4 -5 -80 0
-4 5 -80 0
4 5 80 0
6 -7 81 0
-6 -7 -81 0
6 7 -81 0
-6 7 81 0
-8 10 82 0
8 10 -82 0
-8 -10 -82 0
8 -10 82 0
-11 12 83 0
11 12 -83 0
-11 -12 -83 0
11 -12 83 0
14 15 84 0
-14 15 -84 0
14 -15 -84 0
-14 -15 84 0
-16 18 85 0
16 18 -85 0
-16 -18 -85 0
16 -18 85 0
-20 22 86 0
20 22 -86 0
-20 -22 -86 0
20 -22 86 0
-24 -25 87 0
24 -25 -87 0
-24 25 -87 0
24 25 87 0
32 -36 88 0
-32 -36 -88 0
32 36 -88 0
-32 36 88 0
-37 -40 89 0
37 -40 -89 0
-37 40 -89 0
37 40 89 0
41 -42 90 0
-41 -42 -90 0
41 42 -90 0
-41 42 90 0
-43 -46 91 0
43 -46 -91 0
-43 46 -91 0
43 46 91 0
-47 -49 92 0
47 -49 -92 0
-47 49 -92 0
47 49 92 0
79 -80 93 0
-79 -80 -93 0
79 80 -93 0
-79 80 93 0
81 -82 94 0
-81 -82 -94 0
81 82 -94 0
-81 82 94 0
83 -84 95 0
-83 -84 -95 0
83 84 -95 0
-83 84 95 0
85 -86 96 0
-85 -86 -96 0
85 86 -96 0
-85 86 96 0
87 -88 97 0
-87 -88 -97 0
87 88 -97 0
-87 88 97 0
89 -90 98 0
-89 -90 -98 0
89 90 -98 0
-89 90 98 0
91 -92 99 0
-91 -92 -99 0
91 92 -99 0
-91 92 99 0
93 -94 100 0
-93 -94 -100 0
93 94 -100 0
-93 94 100 0
95 -96 101 0
-95 -96 -101 0
95 96 -101 0
-95 96 101 0
97 -98 102 0
-97 -98 -102 0
97 98 -102 0
-97 98 102 0
99 -100 103 0
-99 -100 -103 0
99 100 -103 0
-99 100 103 0
101 -102 104 0
-101 -102 -104 0
101 102 -104 0
-101 102 104 0
103 104 0
-103 -104 0
1 4 105 0
-1 4 -105 0
1 -4 -105 0
-1 -4 105 0
14 -16 106 0
-14 -16 -106 0
14 16 -106 0
-14 16 106 0
-18 -21 107 0
18 -21 -107 0
-18 21 -107 0
18 21 107 0
-24 27 108 0
24 27 -108 0
-24 -27 -108 0
24 -27 108 0
-28 -30 109 0
28 -30 -109 0
-28 30 -109 0
28 30 109 0
32 34 110 0
-32 34 -110 0
32 -34 -110 0
-32 -34 110 0
-36 -38 111 0
36 -38 -111 0
-36 38 -111 0
36 38 111 0
-39 40 112 0
39 40 -112 0
-39 -40 -112 0
39 -40 112 0
-44 -45 113 0
44 -45 -113 0
-44 45 -113 0
44 45 113 0
-46 48 114 0
46 48 -114 0
-46 -48 -114 0
46 -48 114 0
104 -105 115 0
-104 -105 -115 0
104 105 -115 0
-104 105 115 0
106 -107 116 0
-106 -107 -116 0
106 107 -116 0
-106 107 116 0
108 -109 117 0
-108 -109 -117 0
108 109 -117 0
-108 109 117 0
110 -111 118 0
-110 -111 -118 0
110 111 -118 0
-110 111 118 0
112 -113 119 0
-112 -113 -119 0
112 113 -119 0
-112 113 119 0
114 -115 120 0
-114 -115 -120 0
114 115 -120 0
-114 115 120 0
116 -117 121 0
-116 -117 -121 0
116 117 -121 0
-116 117 121 0
118 -119 122 0
-118 -119 -122 0
118 119 -122 0
-118 119 122 0
-120 -121 122 0
120 -121 -122 0
-120 121 -122 0
120 121 122 0
2 3 123 0
-2 3 -123 0
2 -3 -123 0
-2 -3 123 0
5 6 124 0
-5 6 -124 0
5 -6 -124 0
-5 -6 124 0
-8 -9 125 0
8 -9 -125 0
-8 9 -125 0
8 9 125 0
-15 -16 126 0
15 -16 -126 0
-15 16 -126 0
15 16 126 0
-18 -22 127 0
18 -22 -127 0
-18 22 -127 0
18 22 127 0
-23 -24 128 0
23 -24 -128 0
-23 24 -128 0
23 24 128 0
-28 29 129 0
28 29 -129 0
-28 -29 -129 0
28 -29 129 0
-30 35 130 0
30 35 -130 0
-30 -35 -130 0
30 -35 130 0
-37 -38 131 0
37 -38 -131 0
-37 38 -131 0
37 38 131 0
39 41 132 0
-39 41 -132 0
39 -41 -132 0
-39 -41 132 0
45 -46 133 0
-45 -46 -133 0
45 46 -133 0
-45 46 133 0
-47 -48 134 0
47 -48 -134 0
-47 48 -134 0
47 48 134 0
123 -124 135 0
-123 -124 -135 0
123 124 -135 0
-123 124 135 0
125 -126 136 0
-125 -126 -136 0
125 126 -136 0
-125 126 136 0
127 -128 137 0
-127 -128 -137 0
127 128 -137 0
-127 128 137 0
129 -130 138 0
-129 -130 -138 0
129 130 -138 0
-129 130 138 0
131 -132 139 0
-131 -132 -139 0
131 132 -139 0
-131 132 139 0
133 -134 140 0
-133 -134 -140 0
133 134 -140 0
-133 134 140 0
135 -136 141 0
-135 -136 -141 0
135 136 -141 0
-135 136 141 0
137 -138 142 0
-137 -138 -142 0
137 138 -142 0
-137 138 142 0
139 -140 143 0
-139 -140 -143 0
139 140 -143 0
-139 140 143 0
-141 -142 143 0
141 -142 -143 0
-141 142 -143 0
141 142 143 0
-2 3 144 0
2 3 -144 0
-2 -3 -144 0
2 -3 144 0
4 -7 145 0
-4 -7 -145 0
4 7 -145 0
-4 7 145 0
8 -9 146 0
-8 -9 -146 0
8 9 -146 0
-8 9 146 0
-11 -13 147 0
11 -13 -147 0
-11 13 -147 0
11 13 147 0
-14 -17 148 0
14 -17 -148 0
-14 17 -148 0
14 17 148 0
-18 -19 149 0
18 -19 -149 0
-18 19 -149 0
18 19 149 0
20 25 150 0
-20 25 -150 0
20 -25 -150 0
-20 -25 150 0
-26 -29 151 0
26 -29 -151 0
-26 29 -151 0
26 29 151 0
30 -31 152 0
-30 -31 -152 0
30 31 -152 0
-30 31 152 0
32 -33 153 0
-32 -33 -153 0
32 33 -153 0
-32 33 153 0
-36 39 154 0
36 39 -154 0
-36 -39 -154 0
36 -39 154 0
41 -44 155 0
-41 -44 -155 0
41 44 -155 0
-41 44 155 0
-45 46 156 0
45 46 -156 0
-45 -46 -156 0
45 -46 156 0
143 -144 157 0
-143 -144 -157 0
143 144 -157 0
-143 144 157 0
145 -146 158 0
-145 -146 -158 0
145 146 -158 0
-145 146 158 0
147 -148 159 0
-147 -148 -159 0
147 148 -159 0
-147 148 159 0
149 -150 160 0
-149 -150 -160 0
149 150 -160 0
-149 150 160 0
151 -152 161 0
-151 -152 -161 0
151 152 -161 0
-151 152 161 0
153 -154 162 0
-153 -154 -162 0
153 154 -162 0
-153 154 162 0
155 -156 163 0
-155 -156 -163 0
155 156 -163 0
-155 156 163 0
157 -158 164 0
-157 -158 -164 0
157 158 -164 0
-157 158 164 0
159 -160 165 0
-159 -160 -165 0
159 160 -165 0
-159 160 165 0
161 -162 166 0
-161 -162 -166 0
161 162 -166 0
-161 162 166 0
163 -164 167 0
-163 -164 -167 0
163 164 -167 0
-163 164 167 0
165 -166 168 0
-165 -166 -168 0
165 166 -168 0
-165 166 168 0
167 168 0
-167 -168 0
-1 -3 169 0
1 -3 -169 0
-1 3 -169 0
1 3 169 0
5 -6 170 0
-5 -6 -170 0
5 6 -170 0
-5 6 170 0
-8 9 171 0
8 9 -171 0
-8 -9 -171 0
8 -9 171 0
-10 -13 172 0
10 -13 -172 0
-10 13 -172 0
10 13 172 0
14 15 173 0
-14 15 -173 0
14 -15 -173 0
-14 -15 173 0
-17 -19 174 0
17 -19 -174 0
-17 19 -174 0
17 19 174 0
-21 -22 175 0
21 -22 -175 0
-21 22 -175 0
21 22 175 0
23 -24 176 0
-23 -24 -176 0
23 24 -176 0
-23 24 176 0
25 -26 177 0
-25 -26 -177 0
25 26 -177 0
-25 26 177 0
28 29 178 0
-28 29 -178 0
28 -29 -178 0
-28 -29 178 0
30 31 179 0
-30 31 -179 0
30 -31 -179 0
-30 -31 179 0
33 41 180 0
-33 41 -180 0
33 -41 -180 0
-33 -41 180 0
42 -43 181 0
-42 -43 -181 0
42 43 -181 0
-42 43 181 0
-44 -45 182 0
44 -45 -182 0
-44 45 -182 0
44 45 182 0
48 -49 183 0
-48 -49 -183 0
48 49 -183 0
-48 49 183 0
169 -170 184 0
-169 -170 -184 0
169 170 -184 0
-169 170 184 0
171 -172 185 0
-171 -172 -185 0
171 172 -185 0
-171 172 185 0
173 -174 186 0
-173 -174 -186 0
173 174 -186 0
-173 174 186 0
175 -176 187 0
-175 -176 -187 0
175 176 -187 0
-175 176 187 0
177 -178 188 0
-177 -178 -188 0
177 178 -188 0
-177 178 188 0
179 -180 189 0
-179 -180 -189 0
179 180 -189 0
-179 180 189 0
181 -182 190 0
-181 -182 -190 0
181 182 -190 0
-181 182 190 0
183 -184 191 0
-183 -184 -191 0
183 184 -191 0
-183 184 191 0
185 -186 192 0
-185 -186 -192 0
185 186 -192 0
-185 186 192 0
187 -188 193 0
-187 -188 -193 0
187 188 -193 0
-187 188 193 0
189 -190 194 0
-189 -190 -194 0
189 190 -194 0
-189 190 194 0
191 -192 195 0
-191 -192 -195 0
191 192 -195 0
-191 192 195 0
193 -194 196 0
-193 -194 -196 0
193 194 -196 0
-193 194 196 0
195 196 0
-195 -196 0
-1 2 197 0
1 2 -197 0
-1 -2 -197 0
1 -2 197 0
3 -4 198 0
-3 -4 -198 0
3 4 -198 0
-3 4 198 0
12 -14 199 0
-12 -14 -199 0
12 14 -199 0
-12 14 199 0
-15 17 200 0
15 17 -200 0
-15 -17 -200 0
15 -17 200 0
19 -22 201 0
-19 -22 -201 0
19 22 -201 0
-19 22 201 0
26 -29 202 0
-26 -29 -202 0
26 29 -202 0
-26 29 202 0
33 36 203 0
-33 36 -203 0
33 -36 -203 0
-33 -36 203 0
37 38 204 0
-37 38 -204 0
37 -38 -204 0
-37 -38 204 0
-40 -42 205 0
40 -42 -205 0
-40 42 -205 0
40 42 205 0
-44 -45 206 0
44 -45 -206 0
-44 45 -206 0
44 45 206 0
46 47 207 0
-46 47 -207 0
46 -47 -207 0
-46 -47 207 0
48 -49 208 0
-48 -49 -208 0
48 49 -208 0
-48 49 208 0
196 -197 209 0
-196 -197 -209 0
196 197 -209 0
-196 197 209 0
198 -199 210 0
-198 -199 -210 0
198 199 -210 0
-198 199 210 0
200 -201 211 0
-200 -201 -211 0
200 201 -211 0
-200 201 211 0
202 -203 212 0
-202 -203 -212 0
202 203 -212 0
-202 203 212 0
204 -205 213 0
-204 -205 -213 0
204 205 -213 0
-204 205 213 0
206 -207 214 0
-206 -207 -214 0
206 207 -214 0
-206 207 214 0
208 -209 215 0
-208 -209 -215 0
208 209 -215 0
-208 209 215 0
210 -211 216 0
-210 -211 -216 0
210 211 -216 0
-210 211 216 0
212 -213 217 0
-212 -213 -217 0
212 213 -217 0
-212 213 217 0
214 -215 218 0
-214 -215 -218 0
214 215 -218 0
-214 215 218 0
216 -217 219 0
-216 -217 -219 0
216 217 -219 0
-216 217 219 0
218 219 0
-218 -219 0
-1 -2 220 0
1 -2 -220 0
-1 2 -220 0
1 2 220 0
4 6 221 0
-4 6 -221 0
4 -6 -221 0
-4 -6 221 0
7 -9 222 0
-7 -9 -222 0
7 9 -222 0
-7 9 222 0
-10 13 223 0
10 13 -223 0
-10 -13 -223 0
10 -13 223 0
-15 -16 224 0
15 -16 -224 0
-15 16 -224 0
15 16 224 0
-17 -19 225 0
17 -19 -225 0
-17 19 -225 0
17 19 225 0
-21 26 226 0
21 26 -226 0
-21 -26 -226 0
21 -26 226 0
-28 -29 227 0
28 -29 -227 0
-28 29 -227 0
28 29 227 0
30 33 228 0
-30 33 -228 0
30 -33 -228 0
-30 -33 228 0
37 38 229 0
-37 38 -229 0
37 -38 -229 0
-37 -38 229 0
39 -43 230 0
-39 -43 -230 0
39 43 -230 0
-39 43 230 0
-44 -45 231 0
44 -45 -231 0
-44 45 -231 0
44 45 231 0
47 -48 232 0
-47 -48 -232 0
47 48 -232 0
-47 48 232 0
219 -220 233 0
-219 -220 -233 0
219 220 -233 0
-219 220 233 0
221 -222 234 0
-221 -222 -234 0
221 222 -234 0
-221 222 234 0
223 -224 235 0
-223 -224 -235 0
223 224 -235 0
-223 224 235 0
225 -226 236 0
-225 -226 -236 0
225 226 -236 0
-225 226 236 0
227 -228 237 0
-227 -228 -237 0
227 228 -237 0
-227 228 237 0
229 -230 238 0
-229 -230 -238 0
229 230 -238 0
-229 230 238 0
231 -232 239 0
-231 -232 -239 0
231 232 -239 0
-231 232 239 0
233 -234 240 0
-233 -234 -240 0
233 234 -240 0
-233 234 240 0
235 -236 241 0
-235 -236 -241 0
235 236 -241 0
-235 236 241 0
237 -238 242 0
-237 -238 -242 0
237 238 -242 0
-237 238 242 0
239 -240 243 0
-239 -240 -243 0
239 240 -243 0
-239 240 243 0
241 -242 244 0
-241 -242 -244 0
241 242 -244 0
-241 242 244 0
243 244 0
-243 -244 0
1 2 245 0
-1 2 -245 0
1 -2 -245 0
-1 -2 245 0
-5 8 246 0
5 8 -246 0
-5 -8 -246 0
5 -8 246 0
-9 -13 247 0
9 -13 -247 0
-9 13 -247 0
9 13 247 0
-15 -16 248 0
15 -16 -248 0
-15 16 -248 0
15 16 248 0
17 -18 249 0
-17 -18 -249 0
17 18 -249 0
-17 18 249 0
-19 21 250 0
19 21 -250 0
-19 -21 -250 0
19 -21 250 0
-22 25 251 0
22 25 -251 0
-22 -25 -251 0
22 -25 251 0
-27 30 252 0
27 30 -252 0
-27 -30 -252 0
27 -30 252 0
-31 32 253 0
31 32 -253 0
-31 -32 -253 0
31 -32 253 0
35 -38 254 0
-35 -38 -254 0
35 38 -254 0
-35 38 254 0
39 41 255 0
-39 41 -255 0
39 -41 -255 0
-39 -41 255 0
42 44 256 0
-42 44 -256 0
42 -44 -256 0
-42 -44 256 0
46 48 257 0
-46 48 -257 0
46 -48 -257 0
-46 -48 257 0
244 -245 258 0
-244 -245 -258 0
244 245 -258 0
-244 245 258 0
246 -247 259 0
-246 -247 -259 0
246 247 -259 0
-246 247 259 0
248 -249 260 0
-248 -249 -260 0
248 249 -260 0
-248 249 260 0
250 -251 261 0
-250 -251 -261 0
250 251 -261 0
-250 251 261 0
252 -253 262 0
-252 -253 -262 0
252 253 -262 0
-252 253 262 0
254 -255 263 0
-254 -255 -263 0
254 255 -263 0
-254 255 263 0
256 -257 264 0
-256 -257 -264 0
256 257 -264 0
-256 257 264 0
258 -259 265 0
-258 -259 -265 0
258 259 -265 0
-258 259 265 0
260 -261 266 0
-260 -261 -266 0
260 261 -266 0
-260 261 266 0
262 -263 267 0
-262 -263 -267 0
262 263 -267 0
-262 263 267 0
264 -265 268 0
-264 -265 -268 0
264 265 -268 0
-264 265 268 0
266 -267 269 0
-266 -267 -269 0
266 267 -269 0
-266 267 269 0
268 269 0
-268 -269 0
-1 3 270 0
1 3 -270 0
-1 -3 -270 0
1 -3 270 0
-7 8 271 0
7 8 -271 0
-7 -8 -271 0
7 -8 271 0
9 10 272 0
-9 10 -272 0
9 -10 -272 0
-9 -10 272 0
11 -12 273 0
-11 -12 -273 0
11 12 -273 0
-11 12 273 0
-13 -14 274 0
13 -14 -274 0
-13 14 -274 0
13 14 274 0
16 -21 275 0
-16 -21 -275 0
16 21 -275 0
-16 21 275 0
-23 24 276 0
23 24 -276 0
-23 -24 -276 0
23 -24 276 0
-26 27 277 0
26 27 -277 0
-26 -27 -277 0
26 -27 277 0
32 -37 278 0
-32 -37 -278 0
32 37 -278 0
-32 37 278 0
-38 40 279 0
38 40 -279 0
-38 -40 -279 0
38 -40 279 0
41 43 280 0
-41 43 -280 0
41 -43 -280 0
-41 -43 280 0
44 47 281 0
-44 47 -281 0
44 -47 -281 0
-44 -47 281 0
269 -270 282 0
-269 -270 -282 0
269 270 -282 0
-269 270 282 0
271 -272 283 0
-271 -272 -283 0
271 272 -283 0
-271 272 283 0
273 -274 284 0
-273 -274 -284 0
273 274 -284 0
-273 274 284 0
275 -276 285 0
-275 -276 -285 0
275 276 -285 0
-275 276 285 0
277 -278 286 0
-277 -278 -286 0
277 278 -286 0
-277 278 286 0
279 -280 287 0
-279 -280 -287 0
279 280 -287 0
-279 280 287 0
281 -282 288 0
-281 -282 -288 0
281 282 -288 0
-281 282 288 0
283 -284 289 0
-283 -284 -289 0
283 284 -289 0
-283 284 289 0
285 -286 290 0
-285 -286 -290 0
285 286 -290 0
-285 286 290 0
287 -288 291 0
-287 -288 -291 0
287 288 -291 0
-287 288 291 0
289 -290 292 0
-289 -290 -292 0
289 290 -292 0
-289 290 292 0
291 292 0
-291 -292 0
-1 3 293 0
1 3 -293 0
-1 -3 -293 0
1 -3 293 0
-4 6 294 0
4 6 -294 0
-4 -6 -294 0
4 -6 294 0
-12 -13 295 0
12 -13 -295 0
-12 13 -295 0
12 13 295 0
-14 -18 296 0
14 -18 -296 0
-14 18 -296 0
14 18 296 0
-21 -24 297 0
21 -24 -297 0
-21 24 -297 0
21 24 297 0
25 -26 298 0
-25 -26 -298 0
25 26 -298 0
-25 26 298 0
29 -31 299 0
-29 -31 -299 0
29 31 -299 0
-29 31 299 0
-32 -33 300 0
32 -33 -300 0
-32 33 -300 0
32 33 300 0
-41 42 301 0
41 42 -301 0
-41 -42 -301 0
41 -42 301 0
43 44 302 0
-43 44 -302 0
43 -44 -302 0
-43 -44 302 0
45 46 303 0
-45 46 -303 0
45 -46 -303 0
-45 -46 303 0
47 48 304 0
-47 48 -304 0
47 -48 -304 0
-47 -48 304 0
49 50 305 0
-49 50 -305 0
49 -50 -305 0
-49 -50 305 0
293 -294 306 0
-293 -294 -306 0
293 294 -306 0
-293 294 306 0
295 -296 307 0
-295 -296 -307 0
295 296 -307 0
-295 296 307 0
297 -298 308 0
-297 -298 -308 0
297 298 -308 0
-297 298 308 0
299 -300 309 0
-299 -300 -309 0
299 300 -309 0
-299 300 309 0
301 -302 310 0
-301 -302 -310 0
301 302 -310 0
-301 302 310 0
303 -304 311 0
-303 -304 -311 0
303 304 -311 0
-303 304 311 0
305 -306 312 0
-305 -306 -312 0
305 306 -312 0
-305 306 312 0
307 -308 313 0
-307 -308 -313 0
307 308 -313 0
-307 308 313 0
309 -310 314 0
-309 -310 -314 0
309 310 -314 0
-309 310 314 0
311 -312 315 0
-311 -312 -315 0
311 312 -315 0
-311 312 315 0
313 -314 316 0
-313 -314 -316 0
313 314 -316 0
-313 314 316 0
315 316 0
-315 -316 0
-2 3 317 0
2 3 -317 0
-2 -3 -317 0
2 -3 317 0
-7 8 318 0
7 8 -318 0
-7 -8 -318 0
7 -8 318 0
-9 -10 319 0
9 -10 -319 0
-9 10 -319 0
9 10 319 0
11 -13 320 0
-11 -13 -320 0
11 13 -320 0
-11 13 320 0
15 -17 321 0
-15 -17 -321 0
15 17 -321 0
-15 17 321 0
-19 21 322 0
19 21 -322 0
-19 -21 -322 0
19 -21 322 0
-22 -25 323 0
22 -25 -323 0
-22 25 -323 0
22 25 323 0
-27 31 324 0
27 31 -324 0
-27 -31 -324 0
27 -31 324 0
-33 -34 325 0
33 -34 -325 0
-33 34 -325 0
33 34 325 0
35 -37 326 0
-35 -37 -326 0
35 37 -326 0
-35 37 326 0
39 41 327 0
-39 41 -327 0
39 -41 -327 0
-39 -41 327 0
-42 44 328 0
42 44 -328 0
-42 -44 -328 0
42 -44 328 0
-47 48 329 0
47 48 -329 0
-47 -48 -329 0
47 -48 329 0
317 -318 330 0
-317 -318 -330 0
317 318 -330 0
-317 318 330 0
319 -320 331 0
-319 -320 -331 0
319 320 -331 0
-319 320 331 0
321 -322 332 0
-321 -322 -332 0
321 322 -332 0
-321 322 332 0
323 -324 333 0
-323 -324 -333 0
323 324 -333 0
-323 324 333 0
325 -326 334 0
-325 -326 -334 0
325 326 -334 0
-325 326 334 0
327 -328 335 0
-327 -328 -335 0
327 328 -335 0
-327 328 335 0
329 -330 336 0
-329 -330 -336 0
329 330 -336 0
-329 330 336 0
331 -332 337 0
-331 -332 -337 0
331 332 -337 0
-331 332 337 0
333 -334 338 0
-333 -334 -338 0
333 334 -338 0
-333 334 338 0
335 -336 339 0
-335 -336 -339 0
335 336 -339 0
-335 336 339 0
337 -338 340 0
-337 -338 -340 0
337 338 -340 0
-337 338 340 0
339 340 0
-339 -340 0
-1 2 341 0
1 2 -341 0
-1 -2 -341 0
1 -2 341 0
4 -7 342 0
-4 -7 -342 0
4 7 -342 0
-4 7 342 0
8 -9 343 0
-8 -9 -343 0
8 9 -343 0
-8 9 343 0
-12 -16 344 0
12 -16 -344 0
-12 16 -344 0
12 16 344 0
-17 -18 345 0
17 -18 -345 0
-17 18 -345 0
17 18 345 0
-20 -21 346 0
20 -21 -346 0
-20 21 -346 0
20 21 346 0
24 27 347 0
-24 27 -347 0
24 -27 -347 0
-24 -27 347 0
-28 -32 348 0
28 -32 -348 0
-28 32 -348 0
28 32 348 0
33 35 349 0
-33 35 -349 0
33 -35 -349 0
-33 -35 349 0
36 37 350 0
-36 37 -350 0
36 -37 -350 0
-36 -37 350 0
-38 42 351 0
38 42 -351 0
-38 -42 -351 0
38 -42 351 0
-47 48 352 0
47 48 -352 0
-47 -48 -352 0
47 -48 352 0
340 -341 353 0
-340 -341 -353 0
340 341 -353 0
-340 341 353 0
342 -343 354 0
-342 -343 -354 0
342 343 -354 0
-342 343 354 0
344 -345 355 0
-344 -345 -355 0
344 345 -355 0
-344 345 355 0
346 -347 356 0
-346 -347 -356 0
346 347 -356 0
-346 347 356 0
348 -349 357 0
-348 -349 -357 0
348 349 -357 0
-348 349 357 0
350 -351 358 0
-350 -351 -358 0
350 351 -358 0
-350 351 358 0
352 -353 359 0
-352 -353 -359 0
352 353 -359 0
-352 353 359 0
354 -355 360 0
-354 -355 -360 0
354 355 -360 0
-354 355 360 0
356 -357 361 0
-356 -357 -361 0
356 357 -361 0
-356 357 361 0
358 -359 362 0
-358 -359 -362 0
358 359 -362 0
-358 359 362 0
360 -361 363 0
-360 -361 -363 0
360 361 -363 0
-360 361 363 0
362 363 0
-362 -363 0
-2 -3 364 0
2 -3 -364 0
-2 3 -364 0
2 3 364 0
5 -6 365 0
-5 -6 -365 0
5 6 -365 0
-5 6 365 0
7 -8 366 0
-7 -8 -366 0
7 8 -366 0
-7 8 366 0
-10 -12 367 0
10 -12 -367 0
-10 12 -367 0
10 12 367 0
13 14 368 0
-13 14 -368 0
13 -14 -368 0
-13 -14 368 0
-15 16 369 0
15 16 -369 0
-15 -16 -369 0
15 -16 369 0
17 -19 370 0
-17 -19 -370 0
17 19 -370 0
-17 19 370 0
20 -23 371 0
-20 -23 -371 0
20 23 -371 0
-20 23 371 0
-26 27 372 0
26 27 -372 0
-26 -27 -372 0
26 -27 372 0
30 -31 373 0
-30 -31 -373 0
30 31 -373 0
-30 31 373 0
32 -33 374 0
-32 -33 -374 0
32 33 -374 0
-32 33 374 0
35 36 375 0
-35 36 -375 0
35 -36 -375 0
-35 -36 375 0
-39 -45 376 0
39 -45 -376 0
-39 45 -376 0
39 45 376 0
364 -365 377 0
-364 -365 -377 0
364 365 -377 0
-364 365 377 0
366 -367 378 0
-366 -367 -378 0
366 367 -378 0
-366 367 378 0
368 -369 379 0
-368 -369 -379 0
368 369 -379 0
-368 369 379 0
370 -371 380 0
-370 -371 -380 0
370 371 -380 0
-370 371 380 0
372 -373 381 0
-372 -373 -381 0
372 373 -381 0
-372 373 381 0
374 -375 382 0
-374 -375 -382 0
374 375 -382 0
-374 375 382 0
376 -377 383 0
-376 -377 -383 0
376 377 -383 0
-376 377 383 0
378 -379 384 0
-378 -379 -384 0
378 379 -384 0
-378 379 384 0
380 -381 385 0
-380 -381 -385 0
380 381 -385 0
-380 381 385 0
382 -383 386 0
-382 -383 -386 0
382 383 -386 0
-382 383 386 0
384 -385 387 0
-384 -385 -387 0
384 385 -387 0
-384 385 387 0
386 387 0
-386 -387 0
4 -5 388 0
-4 -5 -388 0
4 5 -388 0
-4 5 388 0
7 10 389 0
-7 10 -389 0
7 -10 -389 0
-7 -10 389 0
-11 13 390 0
11 13 -390 0
-11 -13 -390 0
11 -13 390 0
-15 16 391 0
15 16 -391 0
-15 -16 -391 0
15 -16 391 0
17 21 392 0
-17 21 -392 0
17 -21 -392 0
-17 -21 392 0
27 -28 393 0
-27 -28 -393 0
27 28 -393 0
-27 28 393 0
30 -31 394 0
-30 -31 -394 0
30 31 -394 0
-30 31 394 0
34 -39 395 0
-34 -39 -395 0
34 39 -395 0
-34 39 395 0
42 -43 396 0
-42 -43 -396 0
42 43 -396 0
-42 43 396 0
44 -48 397 0
-44 -48 -397 0
44 48 -397 0
-44 48 397 0
388 -389 398 0
-388 -389 -398 0
388 389 -398 0
-388 389 398 0
390 -391 399 0
-390 -391 -399 0
390 391 -399 0
-390 391 399 0
392 -393 400 0
-392 -393 -400 0
392 393 -400 0
-392 393 400 0
394 -395 401 0
-394 -395 -401 0
394 395 -401 0
-394 395 401 0
396 -397 402 0
-396 -397 -402 0
396 397 -402 0
-396 397 402 0
398 -399 403 0
-398 -399 -403 0
398 399 -403 0
-398 399 403 0
400 -401 404 0
-400 -401 -404 0
400 401 -404 0
-400 401 404 0
-402 -403 404 0
402 -403 -404 0
-402 403 -404 0
402 403 404 0
-12 405 0
-24 405 0
-12 -24 406 0
-23 405 0
-12 -23 406 0
-24 -23 406 0
-12 -24 -23 407 0
-22 408 0
-21 408 0
-22 -21 409 0
-20 408 0
-22 -20 409 0
-21 -20 409 0
-22 -21 -20 410 0
-405 411 0
-406 412 0
-407 413 0
-408 411 0
-409 412 0
-410 413 0
-405 -408 412 0
-405 -409 413 0
-405 -410 414 0
-406 -408 413 0
-406 -409 414 0
-406 -410 415 0
-407 -408 414 0
-407 -409 415 0
-407 -410 416 0
-19 417 0
-18 417 0
-19 -18 418 0
-17 417 0
-19 -17 418 0
-18 -17 418 0
-19 -18 -17 419 0
-16 420 0
-15 420 0
-16 -15 421 0
-14 420 0
-16 -14 421 0
-15 -14 421 0
-16 -15 -14 422 0
-417 423 0
-418 424 0
-419 425 0
-420 423 0
-421 424 0
-422 425 0
-417 -420 424 0
-417 -421 425 0
-417 -422 426 0
-418 -420 425 0
-418 -421 426 0
-418 -422 427 0
-419 -420 426 0
-419 -421 427 0
-419 -422 428 0
-411 429 0
-413 430 0
-415 431 0
-423 429 0
-425 430 0
-427 431 0
-411 -423 430 0
-411 -425 431 0
-411 -427 432 0
-413 -423 431 0
-413 -425 432 0
-413 -427 433 0
-415 -423 432 0
-415 -425 433 0
-415 -427 434 0
-412 435 0
-414 436 0
-416 437 0
-424 435 0
-426 436 0
-428 437 0
-412 -424 436 0
-412 -426 437 0
-412 -428 438 0
-414 -424 437 0
-414 -426 438 0
-414 -428 439 0
-416 -424 438 0
-416 -426 439 0
-416 -428 440 0
-430 441 0
-435 441 0
-430 -435 442 0
-431 443 0
-436 443 0
-431 -436 444 0
-432 445 0
-437 445 0
-432 -437 446 0
-433 447 0
-438 447 0
-433 -438 448 0
-434 449 0
-439 449 0
-434 -439 450 0
-13 451 0
-25 451 0
-13 -25 452 0
-11 451 0
-13 -11 452 0
-25 -11 452 0
-13 -25 -11 453 0
-10 454 0
-9 454 0
-10 -9 455 0
-8 454 0
-10 -8 455 0
-9 -8 455 0
-10 -9 -8 456 0
-451 457 0
-452 458 0
-453 459 0
-454 457 0
-455 458 0
-456 459 0
-451 -454 458 0
-451 -455 459 0
-451 -456 460 0
-452 -454 459 0
-452 -455 460 0
-452 -456 461 0
-453 -454 460 0
-453 -455 461 0
-453 -456 462 0
-7 463 0
-6 463 0
-7 -6 464 0
-5 463 0
-7 -5 464 0
-6 -5 464 0
-7 -6 -5 465 0
-4 466 0
-3 466 0
-4 -3 467 0
-2 466 0
-4 -2 467 0
-3 -2 467 0
-4 -3 -2 468 0
-463 469 0
-464 470 0
-465 471 0
-466 469 0
-467 470 0
-468 471 0
-463 -466 470 0
-463 -467 471 0
-463 -468 472 0
-464 -466 471 0
-464 -467 472 0
-464 -468 473 0
-465 -466 472 0
-465 -467 473 0
-465 -468 474 0
-457 475 0
-459 476 0
-461 477 0
-469 475 0
-471 476 0
-473 477 0
-457 -469 476 0
-457 -471 477 0
-457 -473 478 0
-459 -469 477 0
-459 -471 478 0
-459 -473 479 0
-461 -469 478 0
-461 -471 479 0
-461 -473 480 0
-458 481 0
-460 482 0
-462 483 0
-470 481 0
-472 482 0
-474 483 0
-458 -470 482 0
-458 -472 483 0
-458 -474 484 0
-460 -470 483 0
-460 -472 484 0
-460 -474 485 0
-462 -470 484 0
-462 -472 485 0
-462 -474 486 0
-476 487 0
-481 487 0
-476 -481 488 0
-477 489 0
-482 489 0
-477 -482 490 0
-478 491 0
-483 491 0
-478 -483 492 0
-479 493 0
-484 493 0
-479 -484 494 0
-480 495 0
-485 495 0
-480 -485 496 0
-1 497 0
-37 497 0
-1 -37 498 0
-49 497 0
-1 -49 498 0
-37 -49 498 0
-1 -37 -49 499 0
-48 500 0
-47 500 0
-48 -47 501 0
-46 500 0
-48 -46 501 0
-47 -46 501 0
-48 -47 -46 502 0
-497 503 0
-498 504 0
-499 505 0
-500 503 0
-501 504 0
-502 505 0
-497 -500 504 0
-497 -501 505 0
-497 -502 506 0
-498 -500 505 0
-498 -501 506 0
-498 -502 507 0
-499 -500 506 0
-499 -501 507 0
-499 -502 508 0
-45 509 0
-44 509 0
-45 -44 510 0
-43 509 0
-45 -43 510 0
-44 -43 510 0
-45 -44 -43 511 0
-42 512 0
-41 512 0
-42 -41 513 0
-40 512 0
-42 -40 513 0
-41 -40 513 0
-42 -41 -40 514 0
-509 515 0
-510 516 0
-511 517 0
-512 515 0
-513 516 0
-514 517 0
-509 -512 516 0
-509 -513 517 0
-509 -514 518 0
-510 -512 517 0
-510 -513 518 0
-510 -514 519 0
-511 -512 518 0
-511 -513 519 0
-511 -514 520 0
-503 521 0
-505 522 0
-507 523 0
-515 521 0
-517 522 0
-519 523 0
-503 -515 522 0
-503 -517 523 0
-503 -519 524 0
-505 -515 523 0
-505 -517 524 0
-505 -519 525 0
-507 -515 524 0
-507 -517 525 0
-507 -519 526 0
-504 527 0
-506 528 0
-508 529 0
-516 527 0
-518 528 0
-520 529 0
-504 -516 528 0
-504 -518 529 0
-504 -520 530 0
-506 -516 529 0
-506 -518 530 0
-506 -520 531 0
-508 -516 530 0
-508 -518 531 0
-508 -520 532 0
-522 533 0
-527 533 0
-522 -527 534 0
-523 535 0
-528 535 0
-523 -528 536 0
-524 537 0
-529 537 0
-524 -529 538 0
-525 539 0
-530 539 0
-525 -530 540 0
-526 541 0
-531 541 0
-526 -531 542 0
-39 543 0
-38 543 0
-39 -38 544 0
-50 543 0
-39 -50 544 0
-38 -50 544 0
-39 -38 -50 545 0
-36 546 0
-35 546 0
-36 -35 547 0
-34 546 0
-36 -34 547 0
-35 -34 547 0
-36 -35 -34 548 0
-543 549 0
-544 550 0
-545 551 0
-546 549 0
-547 550 0
-548 551 0
-543 -546 550 0
-543 -547 551 0
-543 -548 552 0
-544 -546 551 0
-544 -547 552 0
-544 -548 553 0
-545 -546 552 0
-545 -547 553 0
-545 -548 554 0
-33 555 0
-32 555 0
-33 -32 556 0
-31 555 0
-33 -31 556 0
-32 -31 556 0
-33 -32 -31 557 0
-30 558 0
-29 558 0
-30 -29 559 0
-28 560 0
-27 560 0
-28 -27 561 0
-26 560 0
-28 -26 561 0
-27 -26 561 0
-28 -27 -26 562 0
-558 563 0
-559 564 0
-560 563 0
-561 564 0
-562 565 0
-558 -560 564 0
-558 -561 565 0
-558 -562 566 0
-559 -560 565 0
-559 -561 566 0
-559 -562 567 0
-555 568 0
-556 569 0
-557 570 0
-563 568 0
-564 569 0
-565 570 0
-566 571 0
-567 572 0
-555 -563 569 0
-555 -564 570 0
-555 -565 571 0
-555 -566 572 0
-555 -567 573 0
-556 -563 570 0
-556 -564 571 0
-556 -565 572 0
-556 -566 573 0
-556 -567 574 0
-557 -563 571 0
-557 -564 572 0
-557 -565 573 0
-557 -566 574 0
-557 -567 575 0
-549 576 0
-551 577 0
-553 578 0
-568 576 0
-570 577 0
-572 578 0
-574 579 0
-549 -568 577 0
-549 -570 578 0
-549 -572 579 0
-549 -574 580 0
-551 -568 578 0
-551 -570 579 0
-551 -572 580 0
-551 -574 581 0
-553 -568 579 0
-553 -570 580 0
-553 -572 581 0
-553 -574 582 0
-550 583 0
-552 584 0
-554 585 0
-569 583 0
-571 584 0
-573 585 0
-575 586 0
-550 -569 584 0
-550 -571 585 0
-550 -573 586 0
-550 -575 587 0
-552 -569 585 0
-552 -571 586 0
-552 -573 587 0
-552 -575 588 0
-554 -569 586 0
-554 -571 587 0
-554 -573 588 0
-554 -575 589 0
-577 590 0
-583 590 0
-577 -583 591 0
-578 592 0
-584 592 0
-578 -584 593 0
-579 594 0
-585 594 0
-579 -585 595 0
-580 596 0
-586 596 0
-580 -586 597 0
-581 598 0
-587 598 0
-581 -587 599 0
-582 600 0
-588 600 0
-582 -588 601 0
-521 602 0
-536 603 0
-540 604 0
-576 602 0
-593 603 0
-597 604 0
-601 605 0
-521 -576 603 0
-521 -593 604 0
-521 -597 605 0
-521 -601 606 0
-536 -576 604 0
-536 -593 605 0
-536 -597 606 0
-540 -576 605 0
-540 -593 606 0
-534 607 0
-538 608 0
-542 609 0
-591 607 0
-595 608 0
-599 609 0
-534 -591 608 0
-534 -595 609 0
-534 -599 610 0
-538 -591 609 0
-538 -595 610 0
-542 -591 610 0
-603 611 0
-607 611 0
-603 -607 612 0
-604 613 0
-608 613 0
-604 -608 614 0
-605 615 0
-609 615 0
-605 -609 616 0
-606 617 0
-610 617 0
-606 -610 618 0
-533 619 0
-537 620 0
-541 621 0
-590 619 0
-594 620 0
-598 621 0
-589 622 0
-533 -590 620 0
-533 -594 621 0
-533 -598 622 0
-533 -589 623 0
-537 -590 621 0
-537 -594 622 0
-537 -598 623 0
-541 -590 622 0
-541 -594 623 0
-535 624 0
-539 625 0
-532 626 0
-592 624 0
-596 625 0
-600 626 0
-535 -592 625 0
-535 -596 626 0
-535 -600 627 0
-539 -592 626 0
-539 -596 627 0
-532 -592 627 0
-620 628 0
-624 628 0
-620 -624 629 0
-621 630 0
-625 630 0
-621 -625 631 0
-622 632 0
-626 632 0
-622 -626 633 0
-623 634 0
-627 634 0
-611 635 0
-619 635 0
-611 -619 636 0
-612 637 0
-628 637 0
-612 -628 638 0
-613 639 0
-629 639 0
-613 -629 640 0
-614 641 0
-630 641 0
-614 -630 642 0
-615 643 0
-631 643 0
-615 -631 644 0
-616 645 0
-632 645 0
-616 -632 646 0
-617 647 0
-633 647 0
-617 -633 648 0
-618 649 0
-634 649 0
-475 650 0
-490 651 0
-494 652 0
-602 650 0
-638 651 0
-642 652 0
-646 653 0
-475 -602 651 0
-475 -638 652 0
-475 -642 653 0
-475 -646 654 0
-490 -602 652 0
-490 -638 653 0
-490 -642 654 0
-494 -602 653 0
-494 -638 654 0
-488 655 0
-492 656 0
-496 657 0
-636 655 0
-640 656 0
-644 657 0
-648 658 0
-488 -636 656 0
-488 -640 657 0
-488 -644 658 0
-492 -636 657 0
-492 -640 658 0
-496 -636 658 0
-651 659 0
-655 659 0
-651 -655 660 0
-652 661 0
-656 661 0
-652 -656 662 0
-653 663 0
-657 663 0
-653 -657 664 0
-654 665 0
-658 665 0
-654 -658 666 0
-487 667 0
-491 668 0
-495 669 0
-635 667 0
-639 668 0
-643 669 0
-647 670 0
-487 -635 668 0
-487 -639 669 0
-487 -643 670 0
-487 -647 671 0
-491 -635 669 0
-491 -639 670 0
-491 -643 671 0
-495 -635 670 0
-495 -639 671 0
-489 672 0
-493 673 0
-486 674 0
-637 672 0
-641 673 0
-645 674 0
-649 675 0
-489 -637 673 0
-489 -641 674 0
-489 -645 675 0
-493 -637 674 0
-493 -641 675 0
-486 -637 675 0
-668 676 0
-672 676 0
-668 -672 677 0
-669 678 0
-673 678 0
-669 -673 679 0
-670 680 0
-674 680 0
-670 -674 681 0
-671 682 0
-675 682 0
-659 683 0
-667 683 0
-659 -667 684 0
-660 685 0
-676 685 0
-660 -676 686 0
-661 687 0
-677 687 0
-661 -677 688 0
-662 689 0
-678 689 0
-662 -678 690 0
-663 691 0
-679 691 0
-663 -679 692 0
-664 693 0
-680 693 0
-664 -680 694 0
-665 695 0
-681 695 0
-665 -681 696 0
-666 697 0
-682 697 0
-429 698 0
-444 699 0
-448 700 0
-650 698 0
-686 699 0
-690 700 0
-694 701 0
-429 -650 699 0
-429 -686 700 0
-429 -690 701 0
-429 -694 702 0
-444 -650 700 0
-444 -686 701 0
-444 -690 702 0
-448 -650 701 0
-448 -686 702 0
-442 703 0
-446 704 0
-450 705 0
-684 703 0
-688 704 0
-692 705 0
-696 706 0
-442 -684 704 0
-442 -688 705 0
-442 -692 706 0
-446 -684 705 0
-446 -688 706 0
-450 -684 706 0
-699 707 0
-703 707 0
-699 -703 708 0
-700 709 0
-704 709 0
-700 -704 710 0
-701 711 0
-705 711 0
-701 -705 712 0
-702 713 0
-706 713 0
-702 -706 714 0
-441 715 0
-445 716 0
-449 717 0
-683 715 0
-687 716 0
-691 717 0
-695 718 0
-441 -683 716 0
-441 -687 717 0
-441 -691 718 0
-441 -695 719 0
-445 -683 717 0
-445 -687 718 0
-445 -691 719 0
-449 -683 718 0
-449 -687 719 0
-443 720 0
-447 721 0
-440 722 0
-685 720 0
-689 721 0
-693 722 0
-697 723 0
-443 -685 721 0
-443 -689 722 0
-443 -693 723 0
-447 -685 722 0
-447 -689 723 0
-440 -685 723 0
-716 724 0
-720 724 0
-716 -720 725 0
-717 726 0
-721 726 0
-717 -721 727 0
-718 728 0
-722 728 0
-718 -722 729 0
-719 730 0
-723 730 0
-707 731 0
-715 731 0
-707 -715 732 0
-708 733 0
-724 733 0
-708 -724 734 0
-709 735 0
-725 735 0
-709 -725 736 0
-710 737 0
-726 737 0
-710 -726 738 0
-711 739 0
-727 739 0
-711 -727 740 0
-712 741 0
-728 741 0
-712 -728 742 0
-713 743 0
-729 743 0
-713 -729 744 0
-714 745 0
-730 745 0
-745 0
